c read Graph
c width = 3
c time = 26 ms
c width = 3
c time = 4929 ms
s td 18 4 21
b 1 1 2 8
b 2 2 3 8 9
b 3 5 6 13 14
b 4 3 8 9 16
b 5 3 9 10 16
b 6 5 13 14 20
b 7 3 10 16 17
b 8 3 10 17 18
b 9 5 13 19 20
b 10 3 4 10 18
b 11 4 10 11 18
b 12 4 11 12 18
b 13 5 12 13 19
b 14 4 12 18 19
b 15 4 5 12 19
b 16 14 20 21
b 17 8 15 16
b 18 6 7 14
1 2
2 4
3 18
3 6
4 17
4 5
5 7
6 16
6 9
7 8
8 10
9 13
10 11
11 12
12 14
13 15
14 15
